51
41
29
14
21
53
13
12
68
15
7
29
8
13
12
0
25
7
37
0
117
155
51
32
92
7
23
48
42
59
25
15
27
7
93
9
35
24
257
22
50
78
8
22
34
125
51
6
13
0
0
120
12
8
118
34
48
22
119
0
24
13
144
76
40
157
10
151
46
0
0
20
28
9
66
67
0
7
0
8
38
13
0
60
24
39
68
24
11
39
8
72
17
31
144
0
0
28
30
53
